3921
8174
10057
1173
10186
1785
2483
4898
4586
7241
4498
7561
5104
2550
5567
8232
7995
3511
3430
7864
9097
4409
10007
4639
6898
10020
6126
2056
2783
4077
9806
4520
7186
5023
4530
10172
9008
2036
9900
8644
4401
5267
8523
6677
5433
4983
5426
5519
6957
9409
